original problem has 1620 variables (1620 bin, 0 int, 0 impl, 0 cont) and 2520 constraints
1/1 feasible solution given by solution candidate storage, new primal bound 0.000000e+00

presolving:
   (0.0s) running MILP presolver
   (0.0s) MILP presolver found nothing
(round 1, exhaustive) 0 del vars, 0 del conss, 0 add conss, 0 chg bounds, 0 chg sides, 0 chg coeffs, 2493 upgd conss, 0 impls, 1710 clqs
   (0.1s) probing: 51/1620 (3.1%) - 0 fixings, 0 aggregations, 0 implications, 0 bound changes
   (0.1s) probing aborted: 50/50 successive totally useless probings
presolving (2 rounds: 2 fast, 2 medium, 2 exhaustive):
 0 deleted vars, 0 deleted constraints, 0 added constraints, 0 tightened bounds, 0 added holes, 0 changed sides, 0 changed coefficients
 0 implications, 1710 cliques
presolved problem has 1620 variables (1620 bin, 0 int, 0 impl, 0 cont) and 2520 constraints
    387 constraints of type <knapsack>
   1710 constraints of type <setppc>
     27 constraints of type <linear>
    396 constraints of type <logicor>
transformed objective value is always integral (scale: 1)
Presolving Time: 0.06
transformed 1/1 original solutions to the transformed problem space

 time | node  | left  |LP iter|LP it/n|mem/heur|mdpt |vars |cons |rows |cuts |sepa|confs|strbr|  dualbound   | primalbound  |  gap   | compl. 
  0.1s|     1 |     0 |     0 |     - |    17M |   0 |1620 |2520 |   0 |   0 |  0 |   0 |   0 | 0.000000e+00 | 0.000000e+00 |   0.00%| unknown

SCIP Status        : problem is solved [optimal solution found]
Solving Time (sec) : 0.06
Solving Nodes      : 1
Primal Bound       : +0.00000000000000e+00 (1 solutions)
Dual Bound         : +0.00000000000000e+00
Gap                : 0.00 %
